NAME : ClusterId_1020 
COMMENT : (Gillet and Johnson) 
TYPE : CVRP 
DIMENSION : 14 
EDGE_WEIGHT_TYPE : EUC_2D 
CAPACITY : 500 
NODE_COORD_SECTION 
1020 6591 9943 
167 6061 9929 
837 6232 9590 
364 6357 9698 
555 6365 9661 
877 6412 9398 
495 6425 9219 
927 6965 9901 
857 6651 9502 
959 7145 9963 
846 7842 9974 
654 7507 9341 
744 7261 8933 
68 7748 9150 
DEMAND_SECTION 
1020 506
167 30
837 30
364 43
555 55
877 33
495 33
927 36
857 36
959 42
846 54
654 37
744 29
68 30
DEPOT_SECTION 
1020
 -1
EOF